(set-logic LIA)

(declare-const y Int)
(declare-const y! Int)
(declare-const x Int)
(declare-const x! Int)
(declare-const j Int)
(declare-const j! Int)
(declare-const i Int)
(declare-const i! Int)

(declare-const y_25 Int)
(declare-const y_19 Int)
(declare-const y_0 Int)
(declare-const x_24 Int)
(declare-const x_18 Int)
(declare-const x_0 Int)
(declare-const j_17 Int)
(declare-const i_16 Int)

(define-fun inv-f((i Int)(j Int)(x Int)(y Int)) Bool
